\* diet *\
Minimize
Total_Cost_of_Diet: 0.23 servings_2%_Lowfat_Milk
 + 0.16 servings_3.3%_Fat,Whole_Milk + 0.24 servings_Apple,Raw,W_Skin
 + 0.16 servings_Apple_Pie + 0.16 servings_Bagels + 0.15 servings_Banana
 + 0.67 servings_Beanbacn_Soup,W_Watr + 0.15 servings_Bologna,Turkey
 + 0.05 servings_Butter,Regular + 0.31 servings_Cap'N_Crunch
 + 0.07 servings_Carrots,Raw + 0.04 servings_Celery,_Raw
 + 0.25 servings_Cheddar_Cheese + 0.28 servings_Cheerios
 + 0.39 servings_Chicknoodl_Soup + 0.03 servings_Chocolate_Chip_Cookies
 + 0.28 servings_Corn_Flks,_Kellogg'S + 0.39 servings_Couscous
 + 0.65 servings_Crm_Mshrm_Soup,W_Mlk + 0.27 servings_Frankfurter,_Beef
 + 0.16 servings_Frozen_Broccoli + 0.18 servings_Frozen_Corn
 + 0.32 servings_Grapes + 0.33 servings_Ham,Sliced,Extralean
 + 0.83 servings_Hamburger_W_Toppings + 0.31 servings_Hotdog,_Plain
 + 0.15 servings_Kielbasa,Prk + 0.49 servings_Kiwifruit,Raw,Fresh
 + 0.02 servings_Lettuce,Iceberg,Raw + 0.17 servings_Macaroni,Ckd
 + 0.52 servings_Malt_O_Meal,Choc + 0.99 servings_New_E_Clamchwd,W_Mlk
 + 0.75 servings_Neweng_Clamchwd + 0.82 servings_Oatmeal
 + 0.09 servings_Oatmeal_Cookies + 0.15 servings_Oranges
 + 0.07 servings_Peanut_Butter + 0.53 servings_Peppers,_Sweet,_Raw
 + 0.44 servings_Pizza_W_Pepperoni + 0.08 servings_Poached_Eggs
 + 0.04 servings_Popcorn,Air_Popped + 0.81 servings_Pork
 + 0.22 servings_Potato_Chips,Bbqflvr + 0.06 servings_Potatoes,_Baked
 + 0.12 servings_Pretzels + 0.34 servings_Raisin_Brn,_Kellg'S
 + 0.32 servings_Rice_Krispies + 0.84 servings_Roasted_Chicken
 + 0.45 servings_Sardines_in_Oil + 0.11 servings_Scrambled_Eggs
 + 0.13 servings_Skim_Milk + 0.78 servings_Spaghetti_W__Sauce
 + 0.38 servings_Special_K + 0.67 servings_Splt_Pea&Hamsoup
 + 0.59 servings_Taco + 0.31 servings_Tofu + 0.27 servings_Tomato,Red,Ripe,Raw
 + 0.39 servings_Tomato_Soup + 0.19 servings_Tortilla_Chip
 + 0.71 servings_Vegetbeef_Soup + 0.05 servings_Wheat_Bread
 + 0.06 servings_White_Bread + 0.08 servings_White_Rice
 + 0.69 servings_White_Tuna_in_Water
Subject To
Calcium_lower_bound: 296.7 servings_2%_Lowfat_Milk
 + 291.3 servings_3.3%_Fat,Whole_Milk + 9.7 servings_Apple,Raw,W_Skin
 + 3.1 servings_Apple_Pie + 21 servings_Bagels + 6.8 servings_Banana
 + 81 servings_Beanbacn_Soup,W_Watr + 23.8 servings_Bologna,Turkey
 + 1.2 servings_Butter,Regular + 4.8 servings_Cap'N_Crunch
 + 14.9 servings_Carrots,Raw + 16 servings_Celery,_Raw
 + 202 servings_Cheddar_Cheese + 48.6 servings_Cheerios
 + 27.1 servings_Chicknoodl_Soup + 6.2 servings_Chocolate_Chip_Cookies
 + 0.9 servings_Corn_Flks,_Kellogg'S + 7.2 servings_Couscous
 + 178.6 servings_Crm_Mshrm_Soup,W_Mlk + 9 servings_Frankfurter,_Beef
 + 159 servings_Frozen_Broccoli + 3.3 servings_Frozen_Corn
 + 3.4 servings_Grapes + 2 servings_Ham,Sliced,Extralean
 + 51.4 servings_Hamburger_W_Toppings + 23.5 servings_Hotdog,_Plain
 + 11.4 servings_Kielbasa,Prk + 19.8 servings_Kiwifruit,Raw,Fresh
 + 3.8 servings_Lettuce,Iceberg,Raw + 4.9 servings_Macaroni,Ckd
 + 23.1 servings_Malt_O_Meal,Choc + 186 servings_New_E_Clamchwd,W_Mlk
 + 82.8 servings_Neweng_Clamchwd + 18.7 servings_Oatmeal
 + 6.7 servings_Oatmeal_Cookies + 52.4 servings_Oranges
 + 13.1 servings_Peanut_Butter + 6.7 servings_Peppers,_Sweet,_Raw
 + 64.6 servings_Pizza_W_Pepperoni + 24.5 servings_Poached_Eggs
 + 2.8 servings_Popcorn,Air_Popped + 59.9 servings_Pork
 + 14.2 servings_Potato_Chips,Bbqflvr + 22.7 servings_Potatoes,_Baked
 + 10.2 servings_Pretzels + 12.9 servings_Raisin_Brn,_Kellg'S
 + 4 servings_Rice_Krispies + 21.9 servings_Roasted_Chicken
 + 91.7 servings_Sardines_in_Oil + 42.6 servings_Scrambled_Eggs
 + 302.3 servings_Skim_Milk + 80.2 servings_Spaghetti_W__Sauce
 + 8.2 servings_Special_K + 33.6 servings_Splt_Pea&Hamsoup
 + 220.6 servings_Taco + 121.8 servings_Tofu
 + 6.2 servings_Tomato,Red,Ripe,Raw + 27.6 servings_Tomato_Soup
 + 43.7 servings_Tortilla_Chip + 32.6 servings_Vegetbeef_Soup
 + 10.8 servings_Wheat_Bread + 26.2 servings_White_Bread
 + 7.9 servings_White_Rice + 3.4 servings_White_Tuna_in_Water >= 700
Calcium_upper_bound: 296.7 servings_2%_Lowfat_Milk
 + 291.3 servings_3.3%_Fat,Whole_Milk + 9.7 servings_Apple,Raw,W_Skin
 + 3.1 servings_Apple_Pie + 21 servings_Bagels + 6.8 servings_Banana
 + 81 servings_Beanbacn_Soup,W_Watr + 23.8 servings_Bologna,Turkey
 + 1.2 servings_Butter,Regular + 4.8 servings_Cap'N_Crunch
 + 14.9 servings_Carrots,Raw + 16 servings_Celery,_Raw
 + 202 servings_Cheddar_Cheese + 48.6 servings_Cheerios
 + 27.1 servings_Chicknoodl_Soup + 6.2 servings_Chocolate_Chip_Cookies
 + 0.9 servings_Corn_Flks,_Kellogg'S + 7.2 servings_Couscous
 + 178.6 servings_Crm_Mshrm_Soup,W_Mlk + 9 servings_Frankfurter,_Beef
 + 159 servings_Frozen_Broccoli + 3.3 servings_Frozen_Corn
 + 3.4 servings_Grapes + 2 servings_Ham,Sliced,Extralean
 + 51.4 servings_Hamburger_W_Toppings + 23.5 servings_Hotdog,_Plain
 + 11.4 servings_Kielbasa,Prk + 19.8 servings_Kiwifruit,Raw,Fresh
 + 3.8 servings_Lettuce,Iceberg,Raw + 4.9 servings_Macaroni,Ckd
 + 23.1 servings_Malt_O_Meal,Choc + 186 servings_New_E_Clamchwd,W_Mlk
 + 82.8 servings_Neweng_Clamchwd + 18.7 servings_Oatmeal
 + 6.7 servings_Oatmeal_Cookies + 52.4 servings_Oranges
 + 13.1 servings_Peanut_Butter + 6.7 servings_Peppers,_Sweet,_Raw
 + 64.6 servings_Pizza_W_Pepperoni + 24.5 servings_Poached_Eggs
 + 2.8 servings_Popcorn,Air_Popped + 59.9 servings_Pork
 + 14.2 servings_Potato_Chips,Bbqflvr + 22.7 servings_Potatoes,_Baked
 + 10.2 servings_Pretzels + 12.9 servings_Raisin_Brn,_Kellg'S
 + 4 servings_Rice_Krispies + 21.9 servings_Roasted_Chicken
 + 91.7 servings_Sardines_in_Oil + 42.6 servings_Scrambled_Eggs
 + 302.3 servings_Skim_Milk + 80.2 servings_Spaghetti_W__Sauce
 + 8.2 servings_Special_K + 33.6 servings_Splt_Pea&Hamsoup
 + 220.6 servings_Taco + 121.8 servings_Tofu
 + 6.2 servings_Tomato,Red,Ripe,Raw + 27.6 servings_Tomato_Soup
 + 43.7 servings_Tortilla_Chip + 32.6 servings_Vegetbeef_Soup
 + 10.8 servings_Wheat_Bread + 26.2 servings_White_Bread
 + 7.9 servings_White_Rice + 3.4 servings_White_Tuna_in_Water <= 1500
Calories_lower_bound: 121.2 servings_2%_Lowfat_Milk
 + 149.9 servings_3.3%_Fat,Whole_Milk + 81.4 servings_Apple,Raw,W_Skin
 + 67.2 servings_Apple_Pie + 78 servings_Bagels + 104.9 servings_Banana
 + 172 servings_Beanbacn_Soup,W_Watr + 56.4 servings_Bologna,Turkey
 + 35.8 servings_Butter,Regular + 119.6 servings_Cap'N_Crunch
 + 23.7 servings_Carrots,Raw + 6.4 servings_Celery,_Raw
 + 112.7 servings_Cheddar_Cheese + 111 servings_Cheerios
 + 150.1 servings_Chicknoodl_Soup + 78.1 servings_Chocolate_Chip_Cookies
 + 110.5 servings_Corn_Flks,_Kellogg'S + 100.8 servings_Couscous
 + 203.4 servings_Crm_Mshrm_Soup,W_Mlk + 141.8 servings_Frankfurter,_Beef
 + 73.8 servings_Frozen_Broccoli + 72.2 servings_Frozen_Corn
 + 15.1 servings_Grapes + 37.1 servings_Ham,Sliced,Extralean
 + 275 servings_Hamburger_W_Toppings + 242.1 servings_Hotdog,_Plain
 + 80.6 servings_Kielbasa,Prk + 46.4 servings_Kiwifruit,Raw,Fresh
 + 2.6 servings_Lettuce,Iceberg,Raw + 98.7 servings_Macaroni,Ckd
 + 607.2 servings_Malt_O_Meal,Choc + 163.7 servings_New_E_Clamchwd,W_Mlk
 + 175.7 servings_Neweng_Clamchwd + 145.1 servings_Oatmeal
 + 81 servings_Oatmeal_Cookies + 61.6 servings_Oranges
 + 188.5 servings_Peanut_Butter + 20 servings_Peppers,_Sweet,_Raw
 + 181 servings_Pizza_W_Pepperoni + 74.5 servings_Poached_Eggs
 + 108.3 servings_Popcorn,Air_Popped + 710.8 servings_Pork
 + 139.2 servings_Potato_Chips,Bbqflvr + 171.5 servings_Potatoes,_Baked
 + 108 servings_Pretzels + 115.1 servings_Raisin_Brn,_Kellg'S
 + 112.2 servings_Rice_Krispies + 277.4 servings_Roasted_Chicken
 + 49.9 servings_Sardines_in_Oil + 99.6 servings_Scrambled_Eggs
 + 85.5 servings_Skim_Milk + 358.2 servings_Spaghetti_W__Sauce
 + 110.8 servings_Special_K + 184.8 servings_Splt_Pea&Hamsoup
 + 369.4 servings_Taco + 88.2 servings_Tofu
 + 25.8 servings_Tomato,Red,Ripe,Raw + 170.7 servings_Tomato_Soup
 + 142 servings_Tortilla_Chip + 158.1 servings_Vegetbeef_Soup
 + 65 servings_Wheat_Bread + 65 servings_White_Bread
 + 102.7 servings_White_Rice + 115.6 servings_White_Tuna_in_Water >= 1500
Calories_upper_bound: 121.2 servings_2%_Lowfat_Milk
 + 149.9 servings_3.3%_Fat,Whole_Milk + 81.4 servings_Apple,Raw,W_Skin
 + 67.2 servings_Apple_Pie + 78 servings_Bagels + 104.9 servings_Banana
 + 172 servings_Beanbacn_Soup,W_Watr + 56.4 servings_Bologna,Turkey
 + 35.8 servings_Butter,Regular + 119.6 servings_Cap'N_Crunch
 + 23.7 servings_Carrots,Raw + 6.4 servings_Celery,_Raw
 + 112.7 servings_Cheddar_Cheese + 111 servings_Cheerios
 + 150.1 servings_Chicknoodl_Soup + 78.1 servings_Chocolate_Chip_Cookies
 + 110.5 servings_Corn_Flks,_Kellogg'S + 100.8 servings_Couscous
 + 203.4 servings_Crm_Mshrm_Soup,W_Mlk + 141.8 servings_Frankfurter,_Beef
 + 73.8 servings_Frozen_Broccoli + 72.2 servings_Frozen_Corn
 + 15.1 servings_Grapes + 37.1 servings_Ham,Sliced,Extralean
 + 275 servings_Hamburger_W_Toppings + 242.1 servings_Hotdog,_Plain
 + 80.6 servings_Kielbasa,Prk + 46.4 servings_Kiwifruit,Raw,Fresh
 + 2.6 servings_Lettuce,Iceberg,Raw + 98.7 servings_Macaroni,Ckd
 + 607.2 servings_Malt_O_Meal,Choc + 163.7 servings_New_E_Clamchwd,W_Mlk
 + 175.7 servings_Neweng_Clamchwd + 145.1 servings_Oatmeal
 + 81 servings_Oatmeal_Cookies + 61.6 servings_Oranges
 + 188.5 servings_Peanut_Butter + 20 servings_Peppers,_Sweet,_Raw
 + 181 servings_Pizza_W_Pepperoni + 74.5 servings_Poached_Eggs
 + 108.3 servings_Popcorn,Air_Popped + 710.8 servings_Pork
 + 139.2 servings_Potato_Chips,Bbqflvr + 171.5 servings_Potatoes,_Baked
 + 108 servings_Pretzels + 115.1 servings_Raisin_Brn,_Kellg'S
 + 112.2 servings_Rice_Krispies + 277.4 servings_Roasted_Chicken
 + 49.9 servings_Sardines_in_Oil + 99.6 servings_Scrambled_Eggs
 + 85.5 servings_Skim_Milk + 358.2 servings_Spaghetti_W__Sauce
 + 110.8 servings_Special_K + 184.8 servings_Splt_Pea&Hamsoup
 + 369.4 servings_Taco + 88.2 servings_Tofu
 + 25.8 servings_Tomato,Red,Ripe,Raw + 170.7 servings_Tomato_Soup
 + 142 servings_Tortilla_Chip + 158.1 servings_Vegetbeef_Soup
 + 65 servings_Wheat_Bread + 65 servings_White_Bread
 + 102.7 servings_White_Rice + 115.6 servings_White_Tuna_in_Water <= 2500
Carbohydrates_lower_bound: 11.7 servings_2%_Lowfat_Milk
 + 11.4 servings_3.3%_Fat,Whole_Milk + 21 servings_Apple,Raw,W_Skin
 + 9.6 servings_Apple_Pie + 15.1 servings_Bagels + 26.7 servings_Banana
 + 22.8 servings_Beanbacn_Soup,W_Watr + 0.3 servings_Bologna,Turkey
 + 23 servings_Cap'N_Crunch + 5.6 servings_Carrots,Raw
 + 1.5 servings_Celery,_Raw + 0.4 servings_Cheddar_Cheese
 + 19.6 servings_Cheerios + 18.7 servings_Chicknoodl_Soup
 + 9.3 servings_Chocolate_Chip_Cookies + 24.5 servings_Corn_Flks,_Kellogg'S
 + 20.9 servings_Couscous + 15 servings_Crm_Mshrm_Soup,W_Mlk
 + 0.8 servings_Frankfurter,_Beef + 13.6 servings_Frozen_Broccoli
 + 17.1 servings_Frozen_Corn + 4.1 servings_Grapes
 + 0.3 servings_Ham,Sliced,Extralean + 32.7 servings_Hamburger_W_Toppings
 + 18 servings_Hotdog,_Plain + 0.6 servings_Kielbasa,Prk
 + 11.3 servings_Kiwifruit,Raw,Fresh + 0.4 servings_Lettuce,Iceberg,Raw
 + 19.8 servings_Macaroni,Ckd + 128.2 servings_Malt_O_Meal,Choc
 + 16.6 servings_New_E_Clamchwd,W_Mlk + 21.8 servings_Neweng_Clamchwd
 + 25.3 servings_Oatmeal + 12.4 servings_Oatmeal_Cookies
 + 15.4 servings_Oranges + 6.9 servings_Peanut_Butter
 + 4.8 servings_Peppers,_Sweet,_Raw + 19.9 servings_Pizza_W_Pepperoni
 + 0.6 servings_Poached_Eggs + 22.1 servings_Popcorn,Air_Popped
 + 15 servings_Potato_Chips,Bbqflvr + 39.9 servings_Potatoes,_Baked
 + 22.5 servings_Pretzels + 27.9 servings_Raisin_Brn,_Kellg'S
 + 24.8 servings_Rice_Krispies + 1.3 servings_Scrambled_Eggs
 + 11.9 servings_Skim_Milk + 58.3 servings_Spaghetti_W__Sauce
 + 21.3 servings_Special_K + 26.8 servings_Splt_Pea&Hamsoup
 + 26.7 servings_Taco + 2.2 servings_Tofu + 5.7 servings_Tomato,Red,Ripe,Raw
 + 33.2 servings_Tomato_Soup + 17.8 servings_Tortilla_Chip
 + 20.4 servings_Vegetbeef_Soup + 12.4 servings_Wheat_Bread
 + 11.8 servings_White_Bread + 22.3 servings_White_Rice >= 130
Carbohydrates_upper_bound: 11.7 servings_2%_Lowfat_Milk
 + 11.4 servings_3.3%_Fat,Whole_Milk + 21 servings_Apple,Raw,W_Skin
 + 9.6 servings_Apple_Pie + 15.1 servings_Bagels + 26.7 servings_Banana
 + 22.8 servings_Beanbacn_Soup,W_Watr + 0.3 servings_Bologna,Turkey
 + 23 servings_Cap'N_Crunch + 5.6 servings_Carrots,Raw
 + 1.5 servings_Celery,_Raw + 0.4 servings_Cheddar_Cheese
 + 19.6 servings_Cheerios + 18.7 servings_Chicknoodl_Soup
 + 9.3 servings_Chocolate_Chip_Cookies + 24.5 servings_Corn_Flks,_Kellogg'S
 + 20.9 servings_Couscous + 15 servings_Crm_Mshrm_Soup,W_Mlk
 + 0.8 servings_Frankfurter,_Beef + 13.6 servings_Frozen_Broccoli
 + 17.1 servings_Frozen_Corn + 4.1 servings_Grapes
 + 0.3 servings_Ham,Sliced,Extralean + 32.7 servings_Hamburger_W_Toppings
 + 18 servings_Hotdog,_Plain + 0.6 servings_Kielbasa,Prk
 + 11.3 servings_Kiwifruit,Raw,Fresh + 0.4 servings_Lettuce,Iceberg,Raw
 + 19.8 servings_Macaroni,Ckd + 128.2 servings_Malt_O_Meal,Choc
 + 16.6 servings_New_E_Clamchwd,W_Mlk + 21.8 servings_Neweng_Clamchwd
 + 25.3 servings_Oatmeal + 12.4 servings_Oatmeal_Cookies
 + 15.4 servings_Oranges + 6.9 servings_Peanut_Butter
 + 4.8 servings_Peppers,_Sweet,_Raw + 19.9 servings_Pizza_W_Pepperoni
 + 0.6 servings_Poached_Eggs + 22.1 servings_Popcorn,Air_Popped
 + 15 servings_Potato_Chips,Bbqflvr + 39.9 servings_Potatoes,_Baked
 + 22.5 servings_Pretzels + 27.9 servings_Raisin_Brn,_Kellg'S
 + 24.8 servings_Rice_Krispies + 1.3 servings_Scrambled_Eggs
 + 11.9 servings_Skim_Milk + 58.3 servings_Spaghetti_W__Sauce
 + 21.3 servings_Special_K + 26.8 servings_Splt_Pea&Hamsoup
 + 26.7 servings_Taco + 2.2 servings_Tofu + 5.7 servings_Tomato,Red,Ripe,Raw
 + 33.2 servings_Tomato_Soup + 17.8 servings_Tortilla_Chip
 + 20.4 servings_Vegetbeef_Soup + 12.4 servings_Wheat_Bread
 + 11.8 servings_White_Bread + 22.3 servings_White_Rice <= 450
Cholesterol_lower_bound: 18.3 servings_2%_Lowfat_Milk
 + 33.2 servings_3.3%_Fat,Whole_Milk + 2.5 servings_Beanbacn_Soup,W_Watr
 + 28.1 servings_Bologna,Turkey + 10.9 servings_Butter,Regular
 + 29.4 servings_Cheddar_Cheese + 12.3 servings_Chicknoodl_Soup
 + 5.1 servings_Chocolate_Chip_Cookies + 19.8 servings_Crm_Mshrm_Soup,W_Mlk
 + 27.4 servings_Frankfurter,_Beef + 13.3 servings_Ham,Sliced,Extralean
 + 42.8 servings_Hamburger_W_Toppings + 44.1 servings_Hotdog,_Plain
 + 17.4 servings_Kielbasa,Prk + 22.3 servings_New_E_Clamchwd,W_Mlk
 + 10 servings_Neweng_Clamchwd + 14.2 servings_Pizza_W_Pepperoni
 + 211.5 servings_Poached_Eggs + 105.1 servings_Pork
 + 129.9 servings_Roasted_Chicken + 34.1 servings_Sardines_in_Oil
 + 211.2 servings_Scrambled_Eggs + 4.4 servings_Skim_Milk
 + 7.2 servings_Splt_Pea&Hamsoup + 56.4 servings_Taco
 + 10 servings_Vegetbeef_Soup + 35.7 servings_White_Tuna_in_Water >= 30
Cholesterol_upper_bound: 18.3 servings_2%_Lowfat_Milk
 + 33.2 servings_3.3%_Fat,Whole_Milk + 2.5 servings_Beanbacn_Soup,W_Watr
 + 28.1 servings_Bologna,Turkey + 10.9 servings_Butter,Regular
 + 29.4 servings_Cheddar_Cheese + 12.3 servings_Chicknoodl_Soup
 + 5.1 servings_Chocolate_Chip_Cookies + 19.8 servings_Crm_Mshrm_Soup,W_Mlk
 + 27.4 servings_Frankfurter,_Beef + 13.3 servings_Ham,Sliced,Extralean
 + 42.8 servings_Hamburger_W_Toppings + 44.1 servings_Hotdog,_Plain
 + 17.4 servings_Kielbasa,Prk + 22.3 servings_New_E_Clamchwd,W_Mlk
 + 10 servings_Neweng_Clamchwd + 14.2 servings_Pizza_W_Pepperoni
 + 211.5 servings_Poached_Eggs + 105.1 servings_Pork
 + 129.9 servings_Roasted_Chicken + 34.1 servings_Sardines_in_Oil
 + 211.2 servings_Scrambled_Eggs + 4.4 servings_Skim_Milk
 + 7.2 servings_Splt_Pea&Hamsoup + 56.4 servings_Taco
 + 10 servings_Vegetbeef_Soup + 35.7 servings_White_Tuna_in_Water <= 240
Dietary_Fiber_lower_bound: 3.7 servings_Apple,Raw,W_Skin
 + 0.5 servings_Apple_Pie + 0.6 servings_Bagels + 2.7 servings_Banana
 + 8.6 servings_Beanbacn_Soup,W_Watr + 0.5 servings_Cap'N_Crunch
 + 1.6 servings_Carrots,Raw + 0.7 servings_Celery,_Raw + 2 servings_Cheerios
 + 1.5 servings_Chicknoodl_Soup + 0.7 servings_Corn_Flks,_Kellogg'S
 + 1.3 servings_Couscous + 0.5 servings_Crm_Mshrm_Soup,W_Mlk
 + 8.5 servings_Frozen_Broccoli + 2 servings_Frozen_Corn + 0.2 servings_Grapes
 + 2.6 servings_Kiwifruit,Raw,Fresh + 0.3 servings_Lettuce,Iceberg,Raw
 + 0.9 servings_Macaroni,Ckd + 1.5 servings_New_E_Clamchwd,W_Mlk
 + 1.5 servings_Neweng_Clamchwd + 4 servings_Oatmeal
 + 0.6 servings_Oatmeal_Cookies + 3.1 servings_Oranges
 + 2.1 servings_Peanut_Butter + 1.3 servings_Peppers,_Sweet,_Raw
 + 4.3 servings_Popcorn,Air_Popped + 1.2 servings_Potato_Chips,Bbqflvr
 + 3.2 servings_Potatoes,_Baked + 0.9 servings_Pretzels
 + 4 servings_Raisin_Brn,_Kellg'S + 0.4 servings_Rice_Krispies
 + 11.6 servings_Spaghetti_W__Sauce + 0.7 servings_Special_K
 + 4.1 servings_Splt_Pea&Hamsoup + 1.4 servings_Tofu
 + 1.4 servings_Tomato,Red,Ripe,Raw + servings_Tomato_Soup
 + 1.8 servings_Tortilla_Chip + 4 servings_Vegetbeef_Soup
 + 1.3 servings_Wheat_Bread + 1.1 servings_White_Bread
 + 0.3 servings_White_Rice >= 125
Dietary_Fiber_upper_bound: 3.7 servings_Apple,Raw,W_Skin
 + 0.5 servings_Apple_Pie + 0.6 servings_Bagels + 2.7 servings_Banana
 + 8.6 servings_Beanbacn_Soup,W_Watr + 0.5 servings_Cap'N_Crunch
 + 1.6 servings_Carrots,Raw + 0.7 servings_Celery,_Raw + 2 servings_Cheerios
 + 1.5 servings_Chicknoodl_Soup + 0.7 servings_Corn_Flks,_Kellogg'S
 + 1.3 servings_Couscous + 0.5 servings_Crm_Mshrm_Soup,W_Mlk
 + 8.5 servings_Frozen_Broccoli + 2 servings_Frozen_Corn + 0.2 servings_Grapes
 + 2.6 servings_Kiwifruit,Raw,Fresh + 0.3 servings_Lettuce,Iceberg,Raw
 + 0.9 servings_Macaroni,Ckd + 1.5 servings_New_E_Clamchwd,W_Mlk
 + 1.5 servings_Neweng_Clamchwd + 4 servings_Oatmeal
 + 0.6 servings_Oatmeal_Cookies + 3.1 servings_Oranges
 + 2.1 servings_Peanut_Butter + 1.3 servings_Peppers,_Sweet,_Raw
 + 4.3 servings_Popcorn,Air_Popped + 1.2 servings_Potato_Chips,Bbqflvr
 + 3.2 servings_Potatoes,_Baked + 0.9 servings_Pretzels
 + 4 servings_Raisin_Brn,_Kellg'S + 0.4 servings_Rice_Krispies
 + 11.6 servings_Spaghetti_W__Sauce + 0.7 servings_Special_K
 + 4.1 servings_Splt_Pea&Hamsoup + 1.4 servings_Tofu
 + 1.4 servings_Tomato,Red,Ripe,Raw + servings_Tomato_Soup
 + 1.8 servings_Tortilla_Chip + 4 servings_Vegetbeef_Soup
 + 1.3 servings_Wheat_Bread + 1.1 servings_White_Bread
 + 0.3 servings_White_Rice <= 250
Iron_lower_bound: 0.1 servings_2%_Lowfat_Milk
 + 0.1 servings_3.3%_Fat,Whole_Milk + 0.2 servings_Apple,Raw,W_Skin
 + 0.1 servings_Apple_Pie + servings_Bagels + 0.4 servings_Banana
 + 2 servings_Beanbacn_Soup,W_Watr + 0.4 servings_Bologna,Turkey
 + 7.5 servings_Cap'N_Crunch + 0.3 servings_Carrots,Raw
 + 0.2 servings_Celery,_Raw + 0.2 servings_Cheddar_Cheese
 + 4.5 servings_Cheerios + 1.5 servings_Chicknoodl_Soup
 + 0.4 servings_Chocolate_Chip_Cookies + 1.8 servings_Corn_Flks,_Kellogg'S
 + 0.3 servings_Couscous + 0.6 servings_Crm_Mshrm_Soup,W_Mlk
 + 0.6 servings_Frankfurter,_Beef + 2.3 servings_Frozen_Broccoli
 + 0.3 servings_Frozen_Corn + 0.1 servings_Grapes
 + 0.2 servings_Ham,Sliced,Extralean + 2.5 servings_Hamburger_W_Toppings
 + 2.3 servings_Hotdog,_Plain + 0.4 servings_Kielbasa,Prk
 + 0.3 servings_Kiwifruit,Raw,Fresh + 0.1 servings_Lettuce,Iceberg,Raw
 + servings_Macaroni,Ckd + 4.7 servings_Malt_O_Meal,Choc
 + 1.5 servings_New_E_Clamchwd,W_Mlk + 2.8 servings_Neweng_Clamchwd
 + 1.6 servings_Oatmeal + 0.5 servings_Oatmeal_Cookies + 0.1 servings_Oranges
 + 0.6 servings_Peanut_Butter + 0.3 servings_Peppers,_Sweet,_Raw
 + 0.9 servings_Pizza_W_Pepperoni + 0.7 servings_Poached_Eggs
 + 0.8 servings_Popcorn,Air_Popped + 0.4 servings_Pork
 + 0.5 servings_Potato_Chips,Bbqflvr + 4.3 servings_Potatoes,_Baked
 + 1.2 servings_Pretzels + 16.8 servings_Raisin_Brn,_Kellg'S
 + 1.8 servings_Rice_Krispies + 1.8 servings_Roasted_Chicken
 + 0.7 servings_Sardines_in_Oil + 0.7 servings_Scrambled_Eggs
 + 0.1 servings_Skim_Milk + 2.3 servings_Spaghetti_W__Sauce
 + 4.5 servings_Special_K + 2.1 servings_Splt_Pea&Hamsoup + 2.4 servings_Taco
 + 6.2 servings_Tofu + 0.6 servings_Tomato,Red,Ripe,Raw
 + 3.5 servings_Tomato_Soup + 0.4 servings_Tortilla_Chip
 + 2.2 servings_Vegetbeef_Soup + 0.7 servings_Wheat_Bread
 + 0.8 servings_White_Bread + 0.9 servings_White_Rice
 + 0.5 servings_White_Tuna_in_Water >= 10
Iron_upper_bound: 0.1 servings_2%_Lowfat_Milk
 + 0.1 servings_3.3%_Fat,Whole_Milk + 0.2 servings_Apple,Raw,W_Skin
 + 0.1 servings_Apple_Pie + servings_Bagels + 0.4 servings_Banana
 + 2 servings_Beanbacn_Soup,W_Watr + 0.4 servings_Bologna,Turkey
 + 7.5 servings_Cap'N_Crunch + 0.3 servings_Carrots,Raw
 + 0.2 servings_Celery,_Raw + 0.2 servings_Cheddar_Cheese
 + 4.5 servings_Cheerios + 1.5 servings_Chicknoodl_Soup
 + 0.4 servings_Chocolate_Chip_Cookies + 1.8 servings_Corn_Flks,_Kellogg'S
 + 0.3 servings_Couscous + 0.6 servings_Crm_Mshrm_Soup,W_Mlk
 + 0.6 servings_Frankfurter,_Beef + 2.3 servings_Frozen_Broccoli
 + 0.3 servings_Frozen_Corn + 0.1 servings_Grapes
 + 0.2 servings_Ham,Sliced,Extralean + 2.5 servings_Hamburger_W_Toppings
 + 2.3 servings_Hotdog,_Plain + 0.4 servings_Kielbasa,Prk
 + 0.3 servings_Kiwifruit,Raw,Fresh + 0.1 servings_Lettuce,Iceberg,Raw
 + servings_Macaroni,Ckd + 4.7 servings_Malt_O_Meal,Choc
 + 1.5 servings_New_E_Clamchwd,W_Mlk + 2.8 servings_Neweng_Clamchwd
 + 1.6 servings_Oatmeal + 0.5 servings_Oatmeal_Cookies + 0.1 servings_Oranges
 + 0.6 servings_Peanut_Butter + 0.3 servings_Peppers,_Sweet,_Raw
 + 0.9 servings_Pizza_W_Pepperoni + 0.7 servings_Poached_Eggs
 + 0.8 servings_Popcorn,Air_Popped + 0.4 servings_Pork
 + 0.5 servings_Potato_Chips,Bbqflvr + 4.3 servings_Potatoes,_Baked
 + 1.2 servings_Pretzels + 16.8 servings_Raisin_Brn,_Kellg'S
 + 1.8 servings_Rice_Krispies + 1.8 servings_Roasted_Chicken
 + 0.7 servings_Sardines_in_Oil + 0.7 servings_Scrambled_Eggs
 + 0.1 servings_Skim_Milk + 2.3 servings_Spaghetti_W__Sauce
 + 4.5 servings_Special_K + 2.1 servings_Splt_Pea&Hamsoup + 2.4 servings_Taco
 + 6.2 servings_Tofu + 0.6 servings_Tomato,Red,Ripe,Raw
 + 3.5 servings_Tomato_Soup + 0.4 servings_Tortilla_Chip
 + 2.2 servings_Vegetbeef_Soup + 0.7 servings_Wheat_Bread
 + 0.8 servings_White_Bread + 0.9 servings_White_Rice
 + 0.5 servings_White_Tuna_in_Water <= 40
Protein_lower_bound: 8.1 servings_2%_Lowfat_Milk
 + 8 servings_3.3%_Fat,Whole_Milk + 0.3 servings_Apple,Raw,W_Skin
 + 0.5 servings_Apple_Pie + 3 servings_Bagels + 1.2 servings_Banana
 + 7.9 servings_Beanbacn_Soup,W_Watr + 3.9 servings_Bologna,Turkey
 + 1.4 servings_Cap'N_Crunch + 0.6 servings_Carrots,Raw
 + 0.3 servings_Celery,_Raw + 7 servings_Cheddar_Cheese
 + 4.3 servings_Cheerios + 7.9 servings_Chicknoodl_Soup
 + 0.9 servings_Chocolate_Chip_Cookies + 2.3 servings_Corn_Flks,_Kellogg'S
 + 3.4 servings_Couscous + 6.1 servings_Crm_Mshrm_Soup,W_Mlk
 + 5.4 servings_Frankfurter,_Beef + 8 servings_Frozen_Broccoli
 + 2.5 servings_Frozen_Corn + 0.2 servings_Grapes
 + 5.5 servings_Ham,Sliced,Extralean + 13.6 servings_Hamburger_W_Toppings
 + 10.4 servings_Hotdog,_Plain + 3.4 servings_Kielbasa,Prk
 + 0.8 servings_Kiwifruit,Raw,Fresh + 0.2 servings_Lettuce,Iceberg,Raw
 + 3.3 servings_Macaroni,Ckd + 17.3 servings_Malt_O_Meal,Choc
 + 9.5 servings_New_E_Clamchwd,W_Mlk + 10.9 servings_Neweng_Clamchwd
 + 6.1 servings_Oatmeal + 1.1 servings_Oatmeal_Cookies + 1.2 servings_Oranges
 + 7.7 servings_Peanut_Butter + 0.7 servings_Peppers,_Sweet,_Raw
 + 10.1 servings_Pizza_W_Pepperoni + 6.2 servings_Poached_Eggs
 + 3.4 servings_Popcorn,Air_Popped + 13.8 servings_Pork
 + 2.2 servings_Potato_Chips,Bbqflvr + 3.7 servings_Potatoes,_Baked
 + 2.6 servings_Pretzels + 4 servings_Raisin_Brn,_Kellg'S
 + 1.9 servings_Rice_Krispies + 42.2 servings_Roasted_Chicken
 + 5.9 servings_Sardines_in_Oil + 6.7 servings_Scrambled_Eggs
 + 8.4 servings_Skim_Milk + 8.2 servings_Spaghetti_W__Sauce
 + 5.6 servings_Special_K + 11.1 servings_Splt_Pea&Hamsoup
 + 20.7 servings_Taco + 9.4 servings_Tofu + servings_Tomato,Red,Ripe,Raw
 + 4.1 servings_Tomato_Soup + 2 servings_Tortilla_Chip
 + 11.2 servings_Vegetbeef_Soup + 2.2 servings_Wheat_Bread
 + 2.3 servings_White_Bread + 2.1 servings_White_Rice
 + 22.7 servings_White_Tuna_in_Water >= 60
Protein_upper_bound: 8.1 servings_2%_Lowfat_Milk
 + 8 servings_3.3%_Fat,Whole_Milk + 0.3 servings_Apple,Raw,W_Skin
 + 0.5 servings_Apple_Pie + 3 servings_Bagels + 1.2 servings_Banana
 + 7.9 servings_Beanbacn_Soup,W_Watr + 3.9 servings_Bologna,Turkey
 + 1.4 servings_Cap'N_Crunch + 0.6 servings_Carrots,Raw
 + 0.3 servings_Celery,_Raw + 7 servings_Cheddar_Cheese
 + 4.3 servings_Cheerios + 7.9 servings_Chicknoodl_Soup
 + 0.9 servings_Chocolate_Chip_Cookies + 2.3 servings_Corn_Flks,_Kellogg'S
 + 3.4 servings_Couscous + 6.1 servings_Crm_Mshrm_Soup,W_Mlk
 + 5.4 servings_Frankfurter,_Beef + 8 servings_Frozen_Broccoli
 + 2.5 servings_Frozen_Corn + 0.2 servings_Grapes
 + 5.5 servings_Ham,Sliced,Extralean + 13.6 servings_Hamburger_W_Toppings
 + 10.4 servings_Hotdog,_Plain + 3.4 servings_Kielbasa,Prk
 + 0.8 servings_Kiwifruit,Raw,Fresh + 0.2 servings_Lettuce,Iceberg,Raw
 + 3.3 servings_Macaroni,Ckd + 17.3 servings_Malt_O_Meal,Choc
 + 9.5 servings_New_E_Clamchwd,W_Mlk + 10.9 servings_Neweng_Clamchwd
 + 6.1 servings_Oatmeal + 1.1 servings_Oatmeal_Cookies + 1.2 servings_Oranges
 + 7.7 servings_Peanut_Butter + 0.7 servings_Peppers,_Sweet,_Raw
 + 10.1 servings_Pizza_W_Pepperoni + 6.2 servings_Poached_Eggs
 + 3.4 servings_Popcorn,Air_Popped + 13.8 servings_Pork
 + 2.2 servings_Potato_Chips,Bbqflvr + 3.7 servings_Potatoes,_Baked
 + 2.6 servings_Pretzels + 4 servings_Raisin_Brn,_Kellg'S
 + 1.9 servings_Rice_Krispies + 42.2 servings_Roasted_Chicken
 + 5.9 servings_Sardines_in_Oil + 6.7 servings_Scrambled_Eggs
 + 8.4 servings_Skim_Milk + 8.2 servings_Spaghetti_W__Sauce
 + 5.6 servings_Special_K + 11.1 servings_Splt_Pea&Hamsoup
 + 20.7 servings_Taco + 9.4 servings_Tofu + servings_Tomato,Red,Ripe,Raw
 + 4.1 servings_Tomato_Soup + 2 servings_Tortilla_Chip
 + 11.2 servings_Vegetbeef_Soup + 2.2 servings_Wheat_Bread
 + 2.3 servings_White_Bread + 2.1 servings_White_Rice
 + 22.7 servings_White_Tuna_in_Water <= 100
Sodium_lower_bound: 121.8 servings_2%_Lowfat_Milk
 + 119.6 servings_3.3%_Fat,Whole_Milk + 75.4 servings_Apple_Pie
 + 151.4 servings_Bagels + 1.1 servings_Banana
 + 951.3 servings_Beanbacn_Soup,W_Watr + 248.9 servings_Bologna,Turkey
 + 41.3 servings_Butter,Regular + 213.3 servings_Cap'N_Crunch
 + 19.2 servings_Carrots,Raw + 34.8 servings_Celery,_Raw
 + 173.7 servings_Cheddar_Cheese + 307.6 servings_Cheerios
 + 1862.2 servings_Chicknoodl_Soup + 57.8 servings_Chocolate_Chip_Cookies
 + 290.5 servings_Corn_Flks,_Kellogg'S + 4.5 servings_Couscous
 + 1076.3 servings_Crm_Mshrm_Soup,W_Mlk + 461.7 servings_Frankfurter,_Beef
 + 68.2 servings_Frozen_Broccoli + 2.5 servings_Frozen_Corn
 + 0.5 servings_Grapes + 405.1 servings_Ham,Sliced,Extralean
 + 563.9 servings_Hamburger_W_Toppings + 670.3 servings_Hotdog,_Plain
 + 279.8 servings_Kielbasa,Prk + 3.8 servings_Kiwifruit,Raw,Fresh
 + 1.8 servings_Lettuce,Iceberg,Raw + 0.7 servings_Macaroni,Ckd
 + 16.5 servings_Malt_O_Meal,Choc + 992 servings_New_E_Clamchwd,W_Mlk
 + 1864.9 servings_Neweng_Clamchwd + 2.3 servings_Oatmeal
 + 68.9 servings_Oatmeal_Cookies + 155.5 servings_Peanut_Butter
 + 1.5 servings_Peppers,_Sweet,_Raw + 267 servings_Pizza_W_Pepperoni
 + 140 servings_Poached_Eggs + 1.1 servings_Popcorn,Air_Popped
 + 38.4 servings_Pork + 212.6 servings_Potato_Chips,Bbqflvr
 + 15.2 servings_Potatoes,_Baked + 486.2 servings_Pretzels
 + 204.4 servings_Raisin_Brn,_Kellg'S + 340.8 servings_Rice_Krispies
 + 125.6 servings_Roasted_Chicken + 121.2 servings_Sardines_in_Oil
 + 168 servings_Scrambled_Eggs + 126.2 servings_Skim_Milk
 + 1237.1 servings_Spaghetti_W__Sauce + 265.5 servings_Special_K
 + 964.8 servings_Splt_Pea&Hamsoup + 802 servings_Taco + 8.1 servings_Tofu
 + 11.1 servings_Tomato,Red,Ripe,Raw + 1744.4 servings_Tomato_Soup
 + 149.7 servings_Tortilla_Chip + 1915.1 servings_Vegetbeef_Soup
 + 134.5 servings_Wheat_Bread + 132.5 servings_White_Bread
 + 0.8 servings_White_Rice + 333.2 servings_White_Tuna_in_Water >= 800
Sodium_upper_bound: 121.8 servings_2%_Lowfat_Milk
 + 119.6 servings_3.3%_Fat,Whole_Milk + 75.4 servings_Apple_Pie
 + 151.4 servings_Bagels + 1.1 servings_Banana
 + 951.3 servings_Beanbacn_Soup,W_Watr + 248.9 servings_Bologna,Turkey
 + 41.3 servings_Butter,Regular + 213.3 servings_Cap'N_Crunch
 + 19.2 servings_Carrots,Raw + 34.8 servings_Celery,_Raw
 + 173.7 servings_Cheddar_Cheese + 307.6 servings_Cheerios
 + 1862.2 servings_Chicknoodl_Soup + 57.8 servings_Chocolate_Chip_Cookies
 + 290.5 servings_Corn_Flks,_Kellogg'S + 4.5 servings_Couscous
 + 1076.3 servings_Crm_Mshrm_Soup,W_Mlk + 461.7 servings_Frankfurter,_Beef
 + 68.2 servings_Frozen_Broccoli + 2.5 servings_Frozen_Corn
 + 0.5 servings_Grapes + 405.1 servings_Ham,Sliced,Extralean
 + 563.9 servings_Hamburger_W_Toppings + 670.3 servings_Hotdog,_Plain
 + 279.8 servings_Kielbasa,Prk + 3.8 servings_Kiwifruit,Raw,Fresh
 + 1.8 servings_Lettuce,Iceberg,Raw + 0.7 servings_Macaroni,Ckd
 + 16.5 servings_Malt_O_Meal,Choc + 992 servings_New_E_Clamchwd,W_Mlk
 + 1864.9 servings_Neweng_Clamchwd + 2.3 servings_Oatmeal
 + 68.9 servings_Oatmeal_Cookies + 155.5 servings_Peanut_Butter
 + 1.5 servings_Peppers,_Sweet,_Raw + 267 servings_Pizza_W_Pepperoni
 + 140 servings_Poached_Eggs + 1.1 servings_Popcorn,Air_Popped
 + 38.4 servings_Pork + 212.6 servings_Potato_Chips,Bbqflvr
 + 15.2 servings_Potatoes,_Baked + 486.2 servings_Pretzels
 + 204.4 servings_Raisin_Brn,_Kellg'S + 340.8 servings_Rice_Krispies
 + 125.6 servings_Roasted_Chicken + 121.2 servings_Sardines_in_Oil
 + 168 servings_Scrambled_Eggs + 126.2 servings_Skim_Milk
 + 1237.1 servings_Spaghetti_W__Sauce + 265.5 servings_Special_K
 + 964.8 servings_Splt_Pea&Hamsoup + 802 servings_Taco + 8.1 servings_Tofu
 + 11.1 servings_Tomato,Red,Ripe,Raw + 1744.4 servings_Tomato_Soup
 + 149.7 servings_Tortilla_Chip + 1915.1 servings_Vegetbeef_Soup
 + 134.5 servings_Wheat_Bread + 132.5 servings_White_Bread
 + 0.8 servings_White_Rice + 333.2 servings_White_Tuna_in_Water <= 2000
Total_Fat_lower_bound: 4.7 servings_2%_Lowfat_Milk
 + 8.1 servings_3.3%_Fat,Whole_Milk + 0.5 servings_Apple,Raw,W_Skin
 + 3.1 servings_Apple_Pie + 0.5 servings_Bagels + 0.5 servings_Banana
 + 5.9 servings_Beanbacn_Soup,W_Watr + 4.3 servings_Bologna,Turkey
 + 4.1 servings_Butter,Regular + 2.6 servings_Cap'N_Crunch
 + 0.1 servings_Carrots,Raw + 0.1 servings_Celery,_Raw
 + 9.3 servings_Cheddar_Cheese + 1.8 servings_Cheerios
 + 4.6 servings_Chicknoodl_Soup + 4.5 servings_Chocolate_Chip_Cookies
 + 0.1 servings_Corn_Flks,_Kellogg'S + 0.1 servings_Couscous
 + 13.6 servings_Crm_Mshrm_Soup,W_Mlk + 12.8 servings_Frankfurter,_Beef
 + 0.8 servings_Frozen_Broccoli + 0.6 servings_Frozen_Corn
 + 0.1 servings_Grapes + 1.4 servings_Ham,Sliced,Extralean
 + 10.2 servings_Hamburger_W_Toppings + 14.5 servings_Hotdog,_Plain
 + 7.1 servings_Kielbasa,Prk + 0.3 servings_Kiwifruit,Raw,Fresh
 + 0.5 servings_Macaroni,Ckd + 1.5 servings_Malt_O_Meal,Choc
 + 6.6 servings_New_E_Clamchwd,W_Mlk + 5 servings_Neweng_Clamchwd
 + 2.3 servings_Oatmeal + 3.3 servings_Oatmeal_Cookies + 0.2 servings_Oranges
 + 16 servings_Peanut_Butter + 0.1 servings_Peppers,_Sweet,_Raw
 + 7 servings_Pizza_W_Pepperoni + 5 servings_Poached_Eggs
 + 1.2 servings_Popcorn,Air_Popped + 72.2 servings_Pork
 + 9.2 servings_Potato_Chips,Bbqflvr + 0.2 servings_Potatoes,_Baked
 + servings_Pretzels + 0.7 servings_Raisin_Brn,_Kellg'S
 + 0.2 servings_Rice_Krispies + 10.8 servings_Roasted_Chicken
 + 2.7 servings_Sardines_in_Oil + 7.3 servings_Scrambled_Eggs
 + 0.4 servings_Skim_Milk + 12.3 servings_Spaghetti_W__Sauce
 + 0.1 servings_Special_K + 4 servings_Splt_Pea&Hamsoup + 20.6 servings_Taco
 + 5.5 servings_Tofu + 0.4 servings_Tomato,Red,Ripe,Raw
 + 3.8 servings_Tomato_Soup + 7.4 servings_Tortilla_Chip
 + 3.8 servings_Vegetbeef_Soup + servings_Wheat_Bread + servings_White_Bread
 + 0.2 servings_White_Rice + 2.1 servings_White_Tuna_in_Water >= 20
Total_Fat_upper_bound: 4.7 servings_2%_Lowfat_Milk
 + 8.1 servings_3.3%_Fat,Whole_Milk + 0.5 servings_Apple,Raw,W_Skin
 + 3.1 servings_Apple_Pie + 0.5 servings_Bagels + 0.5 servings_Banana
 + 5.9 servings_Beanbacn_Soup,W_Watr + 4.3 servings_Bologna,Turkey
 + 4.1 servings_Butter,Regular + 2.6 servings_Cap'N_Crunch
 + 0.1 servings_Carrots,Raw + 0.1 servings_Celery,_Raw
 + 9.3 servings_Cheddar_Cheese + 1.8 servings_Cheerios
 + 4.6 servings_Chicknoodl_Soup + 4.5 servings_Chocolate_Chip_Cookies
 + 0.1 servings_Corn_Flks,_Kellogg'S + 0.1 servings_Couscous
 + 13.6 servings_Crm_Mshrm_Soup,W_Mlk + 12.8 servings_Frankfurter,_Beef
 + 0.8 servings_Frozen_Broccoli + 0.6 servings_Frozen_Corn
 + 0.1 servings_Grapes + 1.4 servings_Ham,Sliced,Extralean
 + 10.2 servings_Hamburger_W_Toppings + 14.5 servings_Hotdog,_Plain
 + 7.1 servings_Kielbasa,Prk + 0.3 servings_Kiwifruit,Raw,Fresh
 + 0.5 servings_Macaroni,Ckd + 1.5 servings_Malt_O_Meal,Choc
 + 6.6 servings_New_E_Clamchwd,W_Mlk + 5 servings_Neweng_Clamchwd
 + 2.3 servings_Oatmeal + 3.3 servings_Oatmeal_Cookies + 0.2 servings_Oranges
 + 16 servings_Peanut_Butter + 0.1 servings_Peppers,_Sweet,_Raw
 + 7 servings_Pizza_W_Pepperoni + 5 servings_Poached_Eggs
 + 1.2 servings_Popcorn,Air_Popped + 72.2 servings_Pork
 + 9.2 servings_Potato_Chips,Bbqflvr + 0.2 servings_Potatoes,_Baked
 + servings_Pretzels + 0.7 servings_Raisin_Brn,_Kellg'S
 + 0.2 servings_Rice_Krispies + 10.8 servings_Roasted_Chicken
 + 2.7 servings_Sardines_in_Oil + 7.3 servings_Scrambled_Eggs
 + 0.4 servings_Skim_Milk + 12.3 servings_Spaghetti_W__Sauce
 + 0.1 servings_Special_K + 4 servings_Splt_Pea&Hamsoup + 20.6 servings_Taco
 + 5.5 servings_Tofu + 0.4 servings_Tomato,Red,Ripe,Raw
 + 3.8 servings_Tomato_Soup + 7.4 servings_Tortilla_Chip
 + 3.8 servings_Vegetbeef_Soup + servings_Wheat_Bread + servings_White_Bread
 + 0.2 servings_White_Rice + 2.1 servings_White_Tuna_in_Water <= 70
Vit_A_lower_bound: 500.2 servings_2%_Lowfat_Milk
 + 307.4 servings_3.3%_Fat,Whole_Milk + 73.1 servings_Apple,Raw,W_Skin
 + 35.2 servings_Apple_Pie + 92.3 servings_Banana
 + 888 servings_Beanbacn_Soup,W_Watr + 152.9 servings_Butter,Regular
 + 40.6 servings_Cap'N_Crunch + 15471 servings_Carrots,Raw
 + 53.6 servings_Celery,_Raw + 296.5 servings_Cheddar_Cheese
 + 1252.2 servings_Cheerios + 1308.7 servings_Chicknoodl_Soup
 + 101.8 servings_Chocolate_Chip_Cookies
 + 1252.2 servings_Corn_Flks,_Kellogg'S + 153.8 servings_Crm_Mshrm_Soup,W_Mlk
 + 5867.4 servings_Frozen_Broccoli + 106.6 servings_Frozen_Corn
 + 24 servings_Grapes + 126.3 servings_Hamburger_W_Toppings
 + 133 servings_Kiwifruit,Raw,Fresh + 66 servings_Lettuce,Iceberg,Raw
 + 163.7 servings_New_E_Clamchwd,W_Mlk + 20.1 servings_Neweng_Clamchwd
 + 37.4 servings_Oatmeal + 2.9 servings_Oatmeal_Cookies
 + 268.6 servings_Oranges + 467.7 servings_Peppers,_Sweet,_Raw
 + 281.9 servings_Pizza_W_Pepperoni + 316 servings_Poached_Eggs
 + 55.6 servings_Popcorn,Air_Popped + 14.7 servings_Pork
 + 61.5 servings_Potato_Chips,Bbqflvr + 1250.2 servings_Raisin_Brn,_Kellg'S
 + 1252.2 servings_Rice_Krispies + 77.4 servings_Roasted_Chicken
 + 53.8 servings_Sardines_in_Oil + 409.2 servings_Scrambled_Eggs
 + 499.8 servings_Skim_Milk + 3055.2 servings_Spaghetti_W__Sauce
 + 1252.2 servings_Special_K + 4872 servings_Splt_Pea&Hamsoup
 + 855 servings_Taco + 98.6 servings_Tofu + 766.3 servings_Tomato,Red,Ripe,Raw
 + 1393 servings_Tomato_Soup + 55.6 servings_Tortilla_Chip
 + 3785.1 servings_Vegetbeef_Soup + 68 servings_White_Tuna_in_Water >= 1000
Vit_A_upper_bound: 500.2 servings_2%_Lowfat_Milk
 + 307.4 servings_3.3%_Fat,Whole_Milk + 73.1 servings_Apple,Raw,W_Skin
 + 35.2 servings_Apple_Pie + 92.3 servings_Banana
 + 888 servings_Beanbacn_Soup,W_Watr + 152.9 servings_Butter,Regular
 + 40.6 servings_Cap'N_Crunch + 15471 servings_Carrots,Raw
 + 53.6 servings_Celery,_Raw + 296.5 servings_Cheddar_Cheese
 + 1252.2 servings_Cheerios + 1308.7 servings_Chicknoodl_Soup
 + 101.8 servings_Chocolate_Chip_Cookies
 + 1252.2 servings_Corn_Flks,_Kellogg'S + 153.8 servings_Crm_Mshrm_Soup,W_Mlk
 + 5867.4 servings_Frozen_Broccoli + 106.6 servings_Frozen_Corn
 + 24 servings_Grapes + 126.3 servings_Hamburger_W_Toppings
 + 133 servings_Kiwifruit,Raw,Fresh + 66 servings_Lettuce,Iceberg,Raw
 + 163.7 servings_New_E_Clamchwd,W_Mlk + 20.1 servings_Neweng_Clamchwd
 + 37.4 servings_Oatmeal + 2.9 servings_Oatmeal_Cookies
 + 268.6 servings_Oranges + 467.7 servings_Peppers,_Sweet,_Raw
 + 281.9 servings_Pizza_W_Pepperoni + 316 servings_Poached_Eggs
 + 55.6 servings_Popcorn,Air_Popped + 14.7 servings_Pork
 + 61.5 servings_Potato_Chips,Bbqflvr + 1250.2 servings_Raisin_Brn,_Kellg'S
 + 1252.2 servings_Rice_Krispies + 77.4 servings_Roasted_Chicken
 + 53.8 servings_Sardines_in_Oil + 409.2 servings_Scrambled_Eggs
 + 499.8 servings_Skim_Milk + 3055.2 servings_Spaghetti_W__Sauce
 + 1252.2 servings_Special_K + 4872 servings_Splt_Pea&Hamsoup
 + 855 servings_Taco + 98.6 servings_Tofu + 766.3 servings_Tomato,Red,Ripe,Raw
 + 1393 servings_Tomato_Soup + 55.6 servings_Tortilla_Chip
 + 3785.1 servings_Vegetbeef_Soup + 68 servings_White_Tuna_in_Water <= 10000
Vit_C_lower_bound: 2.3 servings_2%_Lowfat_Milk
 + 2.3 servings_3.3%_Fat,Whole_Milk + 7.9 servings_Apple,Raw,W_Skin
 + 0.9 servings_Apple_Pie + 10.4 servings_Banana
 + 1.5 servings_Beanbacn_Soup,W_Watr + 5.1 servings_Carrots,Raw
 + 2.8 servings_Celery,_Raw + 15.1 servings_Cheerios
 + 15.1 servings_Corn_Flks,_Kellogg'S + 2.2 servings_Crm_Mshrm_Soup,W_Mlk
 + 10.8 servings_Frankfurter,_Beef + 160.2 servings_Frozen_Broccoli
 + 5.2 servings_Frozen_Corn + servings_Grapes
 + 7.4 servings_Ham,Sliced,Extralean + 2.6 servings_Hamburger_W_Toppings
 + 0.1 servings_Hotdog,_Plain + 5.5 servings_Kielbasa,Prk
 + 74.5 servings_Kiwifruit,Raw,Fresh + 0.8 servings_Lettuce,Iceberg,Raw
 + 3.5 servings_New_E_Clamchwd,W_Mlk + 4.8 servings_Neweng_Clamchwd
 + 0.1 servings_Oatmeal_Cookies + 69.7 servings_Oranges
 + 66.1 servings_Peppers,_Sweet,_Raw + 1.6 servings_Pizza_W_Pepperoni
 + 9.6 servings_Potato_Chips,Bbqflvr + 15.6 servings_Potatoes,_Baked
 + 15.1 servings_Rice_Krispies + 0.1 servings_Scrambled_Eggs
 + 2.4 servings_Skim_Milk + 27.9 servings_Spaghetti_W__Sauce
 + 15.1 servings_Special_K + 7 servings_Splt_Pea&Hamsoup + 2.2 servings_Taco
 + 0.1 servings_Tofu + 23.5 servings_Tomato,Red,Ripe,Raw
 + 133 servings_Tomato_Soup + 4.8 servings_Vegetbeef_Soup >= 400
Vit_C_upper_bound: 2.3 servings_2%_Lowfat_Milk
 + 2.3 servings_3.3%_Fat,Whole_Milk + 7.9 servings_Apple,Raw,W_Skin
 + 0.9 servings_Apple_Pie + 10.4 servings_Banana
 + 1.5 servings_Beanbacn_Soup,W_Watr + 5.1 servings_Carrots,Raw
 + 2.8 servings_Celery,_Raw + 15.1 servings_Cheerios
 + 15.1 servings_Corn_Flks,_Kellogg'S + 2.2 servings_Crm_Mshrm_Soup,W_Mlk
 + 10.8 servings_Frankfurter,_Beef + 160.2 servings_Frozen_Broccoli
 + 5.2 servings_Frozen_Corn + servings_Grapes
 + 7.4 servings_Ham,Sliced,Extralean + 2.6 servings_Hamburger_W_Toppings
 + 0.1 servings_Hotdog,_Plain + 5.5 servings_Kielbasa,Prk
 + 74.5 servings_Kiwifruit,Raw,Fresh + 0.8 servings_Lettuce,Iceberg,Raw
 + 3.5 servings_New_E_Clamchwd,W_Mlk + 4.8 servings_Neweng_Clamchwd
 + 0.1 servings_Oatmeal_Cookies + 69.7 servings_Oranges
 + 66.1 servings_Peppers,_Sweet,_Raw + 1.6 servings_Pizza_W_Pepperoni
 + 9.6 servings_Potato_Chips,Bbqflvr + 15.6 servings_Potatoes,_Baked
 + 15.1 servings_Rice_Krispies + 0.1 servings_Scrambled_Eggs
 + 2.4 servings_Skim_Milk + 27.9 servings_Spaghetti_W__Sauce
 + 15.1 servings_Special_K + 7 servings_Splt_Pea&Hamsoup + 2.2 servings_Taco
 + 0.1 servings_Tofu + 23.5 servings_Tomato,Red,Ripe,Raw
 + 133 servings_Tomato_Soup + 4.8 servings_Vegetbeef_Soup <= 5000
End
